escala_enfermeiros.lp
Minimize
 OBJ: x1 + x2 + x3 + 1.5 x4 + 2 x5 + x6

Subject To
 C1: x6 + x1 >= 50
 C2: x1 + x2 >= 60
 C3: x2 + x3 >= 50
 C4: x3 + x4 >= 40
 C5: x4 + x5 >= 30
 C6: x5 + x6 >= 20

Bounds
 0 <= x1
 0 <= x2
 0 <= x3
 0 <= x4
 0 <= x5
 0 <= x6

General
 x1 x2 x3 x4 x5 x6

End
